row=9;
column=9;
Board=[|1,7,6,8,5,3,9,4,2|7,9,3,5,4,1,2,8,6|6,3,1,7,9,5,4,2,8|2,5,9,4,8,6,7,1,3|3,4,5,9,2,8,1,6,7|5,8,7,2,1,9,6,3,4|9,1,2,6,3,4,8,7,5|8,6,4,3,7,2,5,9,1|4,2,8,1,6,7,3,5,9|];
horizontal=[|0,1,0,1,1,0,1,1|0,1,0,1,1,0,0,1|1,1,0,0,1,1,1,0|0,0,1,0,1,0,1,0|0,0,0,1,0,1,0,0|0,1,1,1,0,1,1,0|1,0,0,1,0,0,1,1|1,1,1,0,1,0,0,1|1,0,1,0,0,1,0,0|];
vertical=[|0,0,1,1,1,1,1,0,0|1,1,1,0,0,0,0,1,0|1,0,0,1,1,0,0,1,1|0,1,1,0,1,0,1,0,0|0,0,0,1,1,0,0,1,1|0,1,1,0,0,1,0,0,0|1,0,0,1,0,1,1,0,1|1,1,0,1,1,0,1,1,0|];
